%%%mzn-stat: initTime=0.003880508
%%%mzn-stat: objective=357
%%%mzn-stat: nodes=433
%%%mzn-stat: restarts=0
%%%mzn-stat: peakDepth=71
%%%mzn-stat: solveTime=0.023808382
%%%mzn-stat: variables=294
%%%mzn-stat: propagators=194
%%%mzn-stat: failures=358
%%%mzn-stat: propagations=49187
%%%mzn-stat: nogoods=358
%%%mzn-stat: AverageConflictSize=2.0391061452513966
%%%mzn-stat: NumUnitNogoodsLearned=356
%%%mzn-stat: AverageLearnedNogoodLength=1.0670391061452513
%%%mzn-stat: AverageBacktrackAmount=0
%%%mzn-stat: AverageLbd=1.0279329608938548
%%%mzn-stat-end
maxleg = 357;
succ = array1d(1..20,[5, 20, 8, 19, 2, 9, 17, 15, 10, 18, 12, 3, 11, 4, 6, 14, 16, 7, 1, 13]);
% time elapsed: 4.61 s
----------
==========
% time elapsed: 4.61 s
%%%mzn-stat: initTime=0.003880508
%%%mzn-stat: objective=357
%%%mzn-stat: nodes=433
%%%mzn-stat: restarts=0
%%%mzn-stat: peakDepth=71
%%%mzn-stat: solveTime=0.023813046
%%%mzn-stat: variables=294
%%%mzn-stat: propagators=194
%%%mzn-stat: failures=358
%%%mzn-stat: propagations=49187
%%%mzn-stat: nogoods=358
%%%mzn-stat: AverageConflictSize=2.0391061452513966
%%%mzn-stat: NumUnitNogoodsLearned=356
%%%mzn-stat: AverageLearnedNogoodLength=1.0670391061452513
%%%mzn-stat: AverageBacktrackAmount=0
%%%mzn-stat: AverageLbd=1.0279329608938548
%%%mzn-stat-end
